JulietBench/Juliet_Based_Patch_Bench/linux/CWE-189-Numeric-Errors/CVE_2011_1013_1922756124ddd53846877416d92ba4a802bc658f/Resultdrm_modeset_ctl_Snippet_patch2NEQ.smt2
; benchmark generated from python API
(set-info :status unknown)
(declare-fun R () (_ BitVec 32))
(declare-fun rsi () (_ BitVec 64))
(declare-fun rdi () (_ BitVec 64))
(assert
 (let (($x348 (and (distinct (_ bv0 32) R) true)))
 (let (($x41 (= (_ bv4294967295 32) R)))
 (let ((?x8 ((_ extract 31 0) rsi)))
 (let (($x12 (= (_ bv0 32) ?x8)))
 (let (($x42 (and $x12 $x41)))
 (let (($x48 (= (_ bv0 32) R)))
 (let (($x38 (and (distinct (_ bv0 32) ?x8) true)))
 (let ((?x6 ((_ extract 31 0) rdi)))
 (let (($x344 (bvugt ?x8 ?x6)))
 (let (($x45 (and $x344 $x38 $x48)))
 (let (($x43 (= (_ bv4294967274 32) R)))
 (let (($x50 (bvule ?x8 ?x6)))
 (let (($x44 (and $x50 $x38 $x43)))
 (let (($x39 (or $x44 $x45 $x42)))
 (let (($x347 (not $x39)))
 (let (($x349 (and $x347 $x348)))
 (let (($x346 (and $x39 $x48)))
 (let (($x350 (or $x346 $x349)))
 (not $x350))))))))))))))))))))
(check-sat)
